results/x-10M/X-n143-k7.vrp_seed-2.out
15700	10982
