results/x-10M/X-n143-k7.vrp_seed-2.vrp.sol
Route #1: 126 13 127 84 68
Route #2: 36 16 32 7 19 97 120 85 91 56 83 28 133 18 90 45 89 12 54 118 128
Route #3: 136 116 17 93 5 107 1 111 72 60 79 98 31 6 102 53 110 114 43 8 86 41 2 78
Route #4: 73 57 95 139 55 137 123 125 33 21 23 132 104 62 96 47 81 100 11 74 44 64 61 65
Route #5: 25 35 142 82 14 37 122 77 22 119 80 39 29 42 131 69 140 141 15 27 106 24 99 71 130
Route #6: 115 124 70 40 59 135 58 67 46 101 66 20 52 88 51 49 50 9 109
Route #7: 117 108 92 134 38 103 10 113 63 112 26 75 94 3 76 129 105 138 34 121 30 87 48 4
Cost 15700.000000